(declare-const X String)
; Host\x3A.*NETObserve\d+Host\x3aohgdhkzfhdzo\x2fuwpOK\r\n
(assert (not (str.in_re X (re.++ (str.to_re "Host:") (re.* re.allchar) (str.to_re "NETObserve") (re.+ (re.range "0" "9")) (str.to_re "Host:ohgdhkzfhdzo/uwpOK\u{d}\u{a}\u{a}")))))
; (^(((\d)|(\d\d)|(\d\d\d))(\xA0|\x20))*((\d)|(\d\d)|(\d\d\d))([,.]\d*)?$)
(assert (str.in_re X (re.++ (str.to_re "\u{a}") (re.* (re.++ (re.union (re.range "0" "9") (re.++ (re.range "0" "9") (re.range "0" "9")) (re.++ (re.range "0" "9") (re.range "0" "9") (re.range "0" "9"))) (re.union (str.to_re "\u{a0}") (str.to_re " ")))) (re.union (re.range "0" "9") (re.++ (re.range "0" "9") (re.range "0" "9")) (re.++ (re.range "0" "9") (re.range "0" "9") (re.range "0" "9"))) (re.opt (re.++ (re.union (str.to_re ",") (str.to_re ".")) (re.* (re.range "0" "9")))))))
(check-sat)
